p edge 300 299 128
e 1 67
e 2 70
e 2 180
e 3 81
e 4 293
e 4 257
e 5 150
e 6 272
e 7 213
e 7 37
e 8 274
e 8 16
e 9 37
e 10 90
e 11 275
e 11 119
e 12 258
e 12 170
e 13 196
e 13 26
e 13 253
e 14 281
e 15 166
e 15 154
e 16 238
e 16 154
e 16 255
e 17 58
e 17 102
e 17 97
e 18 30
e 18 187
e 19 276
e 19 35
e 20 145
e 21 259
e 21 54
e 22 122
e 22 182
e 23 183
e 23 192
e 23 219
e 24 121
e 25 72
e 25 76
e 26 294
e 26 32
e 27 180
e 28 61
e 28 210
e 29 39
e 29 125
e 29 45
e 30 164
e 31 267
e 31 134
e 31 132
e 32 289
e 32 185
e 33 66
e 34 84
e 35 142
e 36 191
e 37 176
e 38 191
e 40 190
e 40 54
e 41 145
e 42 200
e 42 150
e 42 175
e 43 116
e 43 266
e 43 78
e 44 218
e 45 275
e 46 96
e 47 210
e 48 158
e 48 282
e 48 226
e 49 74
e 49 284
e 50 120
e 50 117
e 50 229
e 51 133
e 51 177
e 52 65
e 52 53
e 52 170
e 53 210
e 53 237
e 54 104
e 54 271
e 55 203
e 56 158
e 57 292
e 59 289
e 60 223
e 60 175
e 60 224
e 62 85
e 62 172
e 63 184
e 64 124
e 64 177
e 65 82
e 66 108
e 67 129
e 67 229
e 68 232
e 68 245
e 69 204
e 69 144
e 70 272
e 71 244
e 73 153
e 73 257
e 73 165
e 75 135
e 75 79
e 75 256
e 75 248
e 75 207
e 76 155
e 77 121
e 77 127
e 78 137
e 78 263
e 78 300
e 79 157
e 80 174
e 81 152
e 83 122
e 84 163
e 84 292
e 85 145
e 85 226
e 86 215
e 86 289
e 87 284
e 87 250
e 88 248
e 89 250
e 89 173
e 90 130
e 91 140
e 92 130
e 92 170
e 92 162
e 93 245
e 93 107
e 93 178
e 94 156
e 95 236
e 96 257
e 97 108
e 97 239
e 97 262
e 97 107
e 98 233
e 99 119
e 99 193
e 99 112
e 100 103
e 101 269
e 101 169
e 101 115
e 102 151
e 103 202
e 103 182
e 103 239
e 105 118
e 106 276
e 107 261
e 109 189
e 109 227
e 110 214
e 110 235
e 111 168
e 111 278
e 111 127
e 112 156
e 112 209
e 112 280
e 113 136
e 114 278
e 115 134
e 116 195
e 116 188
e 117 160
e 117 255
e 118 214
e 119 143
e 120 176
e 122 140
e 122 225
e 123 208
e 123 161
e 124 147
e 124 252
e 126 299
e 126 290
e 127 238
e 128 253
e 129 254
e 130 181
e 131 251
e 132 205
e 132 209
e 136 198
e 136 235
e 136 215
e 138 224
e 138 295
e 139 191
e 141 180
e 141 199
e 142 293
e 144 166
e 145 271
e 146 155
e 146 191
e 148 150
e 149 203
e 150 281
e 151 292
e 152 265
e 152 244
e 152 277
e 153 270
e 154 194
e 154 249
e 155 234
e 159 197
e 159 228
e 159 247
e 159 208
e 161 240
e 161 229
e 161 252
e 162 280
e 163 191
e 165 248
e 166 231
e 167 197
e 169 203
e 169 236
e 171 227
e 172 283
e 172 265
e 173 286
e 173 245
e 174 259
e 176 288
e 177 230
e 178 186
e 179 251
e 179 193
e 181 222
e 184 220
e 185 230
e 186 294
e 187 224
e 188 243
e 189 207
e 190 264
e 193 297
e 199 262
e 201 259
e 204 246
e 206 227
e 206 260
e 211 287
e 212 276
e 213 241
e 214 295
e 216 276
e 217 280
e 217 221
e 218 278
e 219 242
e 220 251
e 221 276
e 233 268
e 236 290
e 242 296
e 242 269
e 244 298
e 245 268
e 246 260
e 253 300
e 258 277
e 263 285
e 266 279
e 272 273
e 273 287
e 276 291
